NAME : pr30.tsp.483407.tour
COMMENT : Length = 483407
COMMENT : Found by LKH [Keld Helsgaun] Sat Jun 10 02:09:35 2017
TYPE : TOUR
DIMENSION : 30
TOUR_SECTION
1
16
17
27
22
30
25
10
29
3
11
2
14
13
6
8
20
24
21
15
26
4
5
23
18
12
9
19
7
28
-1
EOF
